# Solution for model GNN
# Objective value = 2.4972847870149346e+00
A[0,0] 1
A[0,1] 1
A[0,2] 1
A[0,3] 1
A[1,0] 1
A[1,1] 1
A[1,2] 1
A[1,3] 1
A[2,0] 1
A[2,1] 1
A[2,2] 1
A[2,3] 1
A[3,0] 1
A[3,1] 1
A[3,2] 1
A[3,3] 1
x[0,0] 1
x[0,1] 0
x[0,2] 0
x[0,3] 0
x[0,4] 0
x[0,5] 0
x[0,6] 0
x[0,7] 1
x[0,8] 0
x[0,9] 0
x[0,10] 1
x[0,11] 0
x[0,12] 0
x[0,13] 0
x[1,0] 1
x[1,1] 0
x[1,2] 0
x[1,3] 0
x[1,4] 0
x[1,5] 0
x[1,6] 0
x[1,7] 1
x[1,8] 0
x[1,9] 0
x[1,10] 1
x[1,11] 0
x[1,12] 0
x[1,13] 0
x[2,0] 1
x[2,1] 0
x[2,2] 0
x[2,3] 0
x[2,4] 0
x[2,5] 0
x[2,6] 0
x[2,7] 1
x[2,8] 0
x[2,9] 0
x[2,10] 1
x[2,11] 0
x[2,12] 0
x[2,13] 0
x[3,0] 1
x[3,1] 0
x[3,2] 0
x[3,3] 0
x[3,4] 0
x[3,5] 0
x[3,6] 0
x[3,7] 1
x[3,8] 0
x[3,9] 0
x[3,10] 1
x[3,11] 0
x[3,12] 0
x[3,13] 0
h_prime[0,0] 0
h_prime[0,1] 0
h_prime[0,2] 0
h_prime[0,3] 0
h_prime[0,4] 0
h_prime[0,5] 1.0977833876386285e+00
h_prime[0,6] 3.8775724172592163e-01
h_prime[0,7] 0
h_prime[0,8] 1.7801513317972422e+00
h_prime[0,9] 1.3334911037236452e+00
h_prime[0,10] 5.0570426881313335e-01
h_prime[0,11] 8.8455221801996231e-01
h_prime[0,12] 0
h_prime[0,13] 0
h_prime[0,14] 0
h_prime[0,15] 4.6199843287467957e-01
h_prime[0,16] 3.9005210250616068e-01
h_prime[0,17] 1.2840051949024195e-01
h_prime[0,18] 0.741335391998291
h_prime[0,19] 0
h_prime[0,20] 9.1201048530638218e-01
h_prime[0,21] 0
h_prime[0,22] 0
h_prime[0,23] 1.5045247524976730e+00
h_prime[0,24] 1.4025070145726204e+00
h_prime[0,25] 0
h_prime[0,26] 0
h_prime[0,27] 0
h_prime[0,28] 0
h_prime[0,29] 0.567849300801754
h_prime[0,30] 0
h_prime[0,31] 0
h_prime[1,0] 0
h_prime[1,1] 0
h_prime[1,2] 0
h_prime[1,3] 0
h_prime[1,4] 0
h_prime[1,5] 1.0977833876386287e+00
h_prime[1,6] 3.8775724172592163e-01
h_prime[1,7] 0
h_prime[1,8] 1.7801513317972422e+00
h_prime[1,9] 1.3334911037236452e+00
h_prime[1,10] 5.0570426881313346e-01
h_prime[1,11] 8.8455221801996231e-01
h_prime[1,12] 0
h_prime[1,13] 0
h_prime[1,14] 0
h_prime[1,15] 4.6199843287467957e-01
h_prime[1,16] 3.9005210250616074e-01
h_prime[1,17] 1.2840051949024203e-01
h_prime[1,18] 0.741335391998291
h_prime[1,19] 0
h_prime[1,20] 9.1201048530638207e-01
h_prime[1,21] 0
h_prime[1,22] 0
h_prime[1,23] 1.5045247524976733e+00
h_prime[1,24] 1.4025070145726204e+00
h_prime[1,25] 0
h_prime[1,26] 0
h_prime[1,27] 0
h_prime[1,28] 0
h_prime[1,29] 0.567849300801754
h_prime[1,30] 0
h_prime[1,31] 0
h_prime[2,0] 0
h_prime[2,1] 0
h_prime[2,2] 0
h_prime[2,3] 0
h_prime[2,4] 0
h_prime[2,5] 1.0977833876386285e+00
h_prime[2,6] 3.8775724172592163e-01
h_prime[2,7] 0
h_prime[2,8] 1.7801513317972422e+00
h_prime[2,9] 1.3334911037236454e+00
h_prime[2,10] 5.0570426881313324e-01
h_prime[2,11] 8.8455221801996231e-01
h_prime[2,12] 0
h_prime[2,13] 0
h_prime[2,14] 0
h_prime[2,15] 4.6199843287467957e-01
h_prime[2,16] 3.9005210250616074e-01
h_prime[2,17] 1.2840051949024212e-01
h_prime[2,18] 0.741335391998291
h_prime[2,19] 0
h_prime[2,20] 9.1201048530638218e-01
h_prime[2,21] 0
h_prime[2,22] 0
h_prime[2,23] 1.5045247524976730e+00
h_prime[2,24] 1.4025070145726204e+00
h_prime[2,25] 0
h_prime[2,26] 0
h_prime[2,27] 0
h_prime[2,28] 0
h_prime[2,29] 0.567849300801754
h_prime[2,30] 0
h_prime[2,31] 0
h_prime[3,0] 0
h_prime[3,1] 0
h_prime[3,2] 0
h_prime[3,3] 0
h_prime[3,4] 0
h_prime[3,5] 1.0977833876386283e+00
h_prime[3,6] 3.8775724172592174e-01
h_prime[3,7] 0
h_prime[3,8] 1.7801513317972422e+00
h_prime[3,9] 1.3334911037236452e+00
h_prime[3,10] 0.505704268813133
h_prime[3,11] 8.8455221801996220e-01
h_prime[3,12] 0
h_prime[3,13] 0
h_prime[3,14] 0
h_prime[3,15] 4.6199843287467973e-01
h_prime[3,16] 3.9005210250616051e-01
h_prime[3,17] 1.2840051949024173e-01
h_prime[3,18] 7.4133539199829079e-01
h_prime[3,19] 0
h_prime[3,20] 0.912010485306382
h_prime[3,21] 0
h_prime[3,22] 0
h_prime[3,23] 1.5045247524976730e+00
h_prime[3,24] 1.4025070145726204e+00
h_prime[3,25] 0
h_prime[3,26] 0
h_prime[3,27] 0
h_prime[3,28] 0
h_prime[3,29] 5.6784930080175411e-01
h_prime[3,30] 0
h_prime[3,31] 0
b_init[0,0,0] 1
b_init[0,0,1] 0
b_init[0,0,2] 0
b_init[0,0,3] 0
b_init[0,0,4] 0
b_init[0,0,5] 0
b_init[0,0,6] 0
b_init[0,0,7] 1
b_init[0,0,8] 0
b_init[0,0,9] 0
b_init[0,0,10] 1
b_init[0,0,11] 0
b_init[0,0,12] 0
b_init[0,0,13] 0
b_init[0,1,0] 1
b_init[0,1,1] 0
b_init[0,1,2] 0
b_init[0,1,3] 0
b_init[0,1,4] 0
b_init[0,1,5] 0
b_init[0,1,6] 0
b_init[0,1,7] 1
b_init[0,1,8] 0
b_init[0,1,9] 0
b_init[0,1,10] 1
b_init[0,1,11] 0
b_init[0,1,12] 0
b_init[0,1,13] 0
b_init[0,2,0] 1
b_init[0,2,1] 0
b_init[0,2,2] 0
b_init[0,2,3] 0
b_init[0,2,4] 0
b_init[0,2,5] 0
b_init[0,2,6] 0
b_init[0,2,7] 1
b_init[0,2,8] 0
b_init[0,2,9] 0
b_init[0,2,10] 1
b_init[0,2,11] 0
b_init[0,2,12] 0
b_init[0,2,13] 0
b_init[0,3,0] 1
b_init[0,3,1] 0
b_init[0,3,2] 0
b_init[0,3,3] 0
b_init[0,3,4] 0
b_init[0,3,5] 0
b_init[0,3,6] 0
b_init[0,3,7] 1
b_init[0,3,8] 0
b_init[0,3,9] 0
b_init[0,3,10] 1
b_init[0,3,11] 0
b_init[0,3,12] 0
b_init[0,3,13] 0
b_init[1,0,0] 1
b_init[1,0,1] 0
b_init[1,0,2] 0
b_init[1,0,3] 0
b_init[1,0,4] 0
b_init[1,0,5] 0
b_init[1,0,6] 0
b_init[1,0,7] 1
b_init[1,0,8] 0
b_init[1,0,9] 0
b_init[1,0,10] 1
b_init[1,0,11] 0
b_init[1,0,12] 0
b_init[1,0,13] 0
b_init[1,1,0] 1
b_init[1,1,1] 0
b_init[1,1,2] 0
b_init[1,1,3] 0
b_init[1,1,4] 0
b_init[1,1,5] 0
b_init[1,1,6] 0
b_init[1,1,7] 1
b_init[1,1,8] 0
b_init[1,1,9] 0
b_init[1,1,10] 1
b_init[1,1,11] 0
b_init[1,1,12] 0
b_init[1,1,13] 0
b_init[1,2,0] 1
b_init[1,2,1] 0
b_init[1,2,2] 0
b_init[1,2,3] 0
b_init[1,2,4] 0
b_init[1,2,5] 0
b_init[1,2,6] 0
b_init[1,2,7] 1
b_init[1,2,8] 0
b_init[1,2,9] 0
b_init[1,2,10] 1
b_init[1,2,11] 0
b_init[1,2,12] 0
b_init[1,2,13] 0
b_init[1,3,0] 1
b_init[1,3,1] 0
b_init[1,3,2] 0
b_init[1,3,3] 0
b_init[1,3,4] 0
b_init[1,3,5] 0
b_init[1,3,6] 0
b_init[1,3,7] 1
b_init[1,3,8] 0
b_init[1,3,9] 0
b_init[1,3,10] 1
b_init[1,3,11] 0
b_init[1,3,12] 0
b_init[1,3,13] 0
b_init[2,0,0] 1
b_init[2,0,1] 0
b_init[2,0,2] 0
b_init[2,0,3] 0
b_init[2,0,4] 0
b_init[2,0,5] 0
b_init[2,0,6] 0
b_init[2,0,7] 1
b_init[2,0,8] 0
b_init[2,0,9] 0
b_init[2,0,10] 1
b_init[2,0,11] 0
b_init[2,0,12] 0
b_init[2,0,13] 0
b_init[2,1,0] 1
b_init[2,1,1] 0
b_init[2,1,2] 0
b_init[2,1,3] 0
b_init[2,1,4] 0
b_init[2,1,5] 0
b_init[2,1,6] 0
b_init[2,1,7] 1
b_init[2,1,8] 0
b_init[2,1,9] 0
b_init[2,1,10] 1
b_init[2,1,11] 0
b_init[2,1,12] 0
b_init[2,1,13] 0
b_init[2,2,0] 1
b_init[2,2,1] 0
b_init[2,2,2] 0
b_init[2,2,3] 0
b_init[2,2,4] 0
b_init[2,2,5] 0
b_init[2,2,6] 0
b_init[2,2,7] 1
b_init[2,2,8] 0
b_init[2,2,9] 0
b_init[2,2,10] 1
b_init[2,2,11] 0
b_init[2,2,12] 0
b_init[2,2,13] 0
b_init[2,3,0] 1
b_init[2,3,1] 0
b_init[2,3,2] 0
b_init[2,3,3] 0
b_init[2,3,4] 0
b_init[2,3,5] 0
b_init[2,3,6] 0
b_init[2,3,7] 1
b_init[2,3,8] 0
b_init[2,3,9] 0
b_init[2,3,10] 1
b_init[2,3,11] 0
b_init[2,3,12] 0
b_init[2,3,13] 0
b_init[3,0,0] 1
b_init[3,0,1] 0
b_init[3,0,2] 0
b_init[3,0,3] 0
b_init[3,0,4] 0
b_init[3,0,5] 0
b_init[3,0,6] 0
b_init[3,0,7] 1
b_init[3,0,8] 0
b_init[3,0,9] 0
b_init[3,0,10] 1
b_init[3,0,11] 0
b_init[3,0,12] 0
b_init[3,0,13] 0
b_init[3,1,0] 1
b_init[3,1,1] 0
b_init[3,1,2] 0
b_init[3,1,3] 0
b_init[3,1,4] 0
b_init[3,1,5] 0
b_init[3,1,6] 0
b_init[3,1,7] 1
b_init[3,1,8] 0
b_init[3,1,9] 0
b_init[3,1,10] 1
b_init[3,1,11] 0
b_init[3,1,12] 0
b_init[3,1,13] 0
b_init[3,2,0] 1
b_init[3,2,1] 0
b_init[3,2,2] 0
b_init[3,2,3] 0
b_init[3,2,4] 0
b_init[3,2,5] 0
b_init[3,2,6] 0
b_init[3,2,7] 1
b_init[3,2,8] 0
b_init[3,2,9] 0
b_init[3,2,10] 1
b_init[3,2,11] 0
b_init[3,2,12] 0
b_init[3,2,13] 0
b_init[3,3,0] 1
b_init[3,3,1] 0
b_init[3,3,2] 0
b_init[3,3,3] 0
b_init[3,3,4] 0
b_init[3,3,5] 0
b_init[3,3,6] 0
b_init[3,3,7] 1
b_init[3,3,8] 0
b_init[3,3,9] 0
b_init[3,3,10] 1
b_init[3,3,11] 0
b_init[3,3,12] 0
b_init[3,3,13] 0
x_0_0_0_gc 0
s_0_0_0_gc 3.7386125512421131e-01
z_0_0_0_gc 0
b_0_0_0_gc[0] 0
b_0_0_0_gc[1] 0
b_0_0_0_gc[2] 0
b_0_0_0_gc[3] 0
x_0_0_1_gc 0
s_0_0_1_gc 0.879174780100584
z_0_0_1_gc 0
b_0_0_1_gc[0] 0
b_0_0_1_gc[1] 0
b_0_0_1_gc[2] 0
b_0_0_1_gc[3] 0
x_0_0_2_gc 0
s_0_0_2_gc 3.3834252227097755e-01
z_0_0_2_gc 0
b_0_0_2_gc[0] 0
b_0_0_2_gc[1] 0
b_0_0_2_gc[2] 0
b_0_0_2_gc[3] 0
x_0_0_3_gc 0
s_0_0_3_gc 1.9619473814964294e-01
z_0_0_3_gc 0
b_0_0_3_gc[0] 0
b_0_0_3_gc[1] 0
b_0_0_3_gc[2] 0
b_0_0_3_gc[3] 0
x_0_0_4_gc 0
s_0_0_4_gc 6.5573130361735821e-01
z_0_0_4_gc 0
b_0_0_4_gc[0] 0
b_0_0_4_gc[1] 0
b_0_0_4_gc[2] 0
b_0_0_4_gc[3] 0
x_0_0_5_gc 0
s_0_0_5_gc 0
z_0_0_5_gc 1
b_0_0_5_gc[0] 0
b_0_0_5_gc[1] 0
b_0_0_5_gc[2] 0
b_0_0_5_gc[3] 0
x_0_0_6_gc 0
s_0_0_6_gc 0
z_0_0_6_gc 1
b_0_0_6_gc[0] 0
b_0_0_6_gc[1] 0
b_0_0_6_gc[2] 0
b_0_0_6_gc[3] 0
x_0_0_7_gc 0
s_0_0_7_gc 2.1689658984541893e-01
z_0_0_7_gc 0
b_0_0_7_gc[0] 0
b_0_0_7_gc[1] 0
b_0_0_7_gc[2] 0
b_0_0_7_gc[3] 0
x_0_0_8_gc 0
s_0_0_8_gc 0
z_0_0_8_gc 1
b_0_0_8_gc[0] 0
b_0_0_8_gc[1] 0
b_0_0_8_gc[2] 0
b_0_0_8_gc[3] 0
x_0_0_9_gc 0
s_0_0_9_gc 0
z_0_0_9_gc 1
b_0_0_9_gc[0] 0
b_0_0_9_gc[1] 0
b_0_0_9_gc[2] 0
b_0_0_9_gc[3] 0
x_0_0_10_gc 0
s_0_0_10_gc 0
z_0_0_10_gc 1
b_0_0_10_gc[0] 0
b_0_0_10_gc[1] 0
b_0_0_10_gc[2] 0
b_0_0_10_gc[3] 0
x_0_0_11_gc 0
s_0_0_11_gc 0
z_0_0_11_gc 1
b_0_0_11_gc[0] 0
b_0_0_11_gc[1] 0
b_0_0_11_gc[2] 0
b_0_0_11_gc[3] 0
x_0_0_12_gc 0
s_0_0_12_gc 6.4000447094440460e-01
z_0_0_12_gc 0
b_0_0_12_gc[0] 0
b_0_0_12_gc[1] 0
b_0_0_12_gc[2] 0
b_0_0_12_gc[3] 0
x_0_0_13_gc 0
s_0_0_13_gc 7.1118887374177575e-01
z_0_0_13_gc 0
b_0_0_13_gc[0] 0
b_0_0_13_gc[1] 0
b_0_0_13_gc[2] 0
b_0_0_13_gc[3] 0
x_0_0_14_gc 0
s_0_0_14_gc 2.9835556447505951e-01
z_0_0_14_gc 0
b_0_0_14_gc[0] 0
b_0_0_14_gc[1] 0
b_0_0_14_gc[2] 0
b_0_0_14_gc[3] 0
x_0_0_15_gc 0
s_0_0_15_gc 0
z_0_0_15_gc 1
b_0_0_15_gc[0] 0
b_0_0_15_gc[1] 0
b_0_0_15_gc[2] 0
b_0_0_15_gc[3] 0
x_0_0_16_gc 0
s_0_0_16_gc 0
z_0_0_16_gc 1
b_0_0_16_gc[0] 0
b_0_0_16_gc[1] 0
b_0_0_16_gc[2] 0
b_0_0_16_gc[3] 0
x_0_0_17_gc 0
s_0_0_17_gc 0
z_0_0_17_gc 1
b_0_0_17_gc[0] 0
b_0_0_17_gc[1] 0
b_0_0_17_gc[2] 0
b_0_0_17_gc[3] 0
x_0_0_18_gc 0
s_0_0_18_gc 0
z_0_0_18_gc 1
b_0_0_18_gc[0] 0
b_0_0_18_gc[1] 0
b_0_0_18_gc[2] 0
b_0_0_18_gc[3] 0
x_0_0_19_gc 0
s_0_0_19_gc 1.3648753594607115e+00
z_0_0_19_gc 0
b_0_0_19_gc[0] 0
b_0_0_19_gc[1] 0
b_0_0_19_gc[2] 0
b_0_0_19_gc[3] 0
x_0_0_20_gc 0
s_0_0_20_gc 0
z_0_0_20_gc 1
b_0_0_20_gc[0] 0
b_0_0_20_gc[1] 0
b_0_0_20_gc[2] 0
b_0_0_20_gc[3] 0
x_0_0_21_gc 0
s_0_0_21_gc 2.1176285408437252e+00
z_0_0_21_gc 0
b_0_0_21_gc[0] 0
b_0_0_21_gc[1] 0
b_0_0_21_gc[2] 0
b_0_0_21_gc[3] 0
x_0_0_22_gc 0
s_0_0_22_gc 1.0464357417076828e+00
z_0_0_22_gc 0
b_0_0_22_gc[0] 0
b_0_0_22_gc[1] 0
b_0_0_22_gc[2] 0
b_0_0_22_gc[3] 0
x_0_0_23_gc 0
s_0_0_23_gc 0
z_0_0_23_gc 1
b_0_0_23_gc[0] 0
b_0_0_23_gc[1] 0
b_0_0_23_gc[2] 0
b_0_0_23_gc[3] 0
x_0_0_24_gc 0
s_0_0_24_gc 0
z_0_0_24_gc 1
b_0_0_24_gc[0] 0
b_0_0_24_gc[1] 0
b_0_0_24_gc[2] 0
b_0_0_24_gc[3] 0
x_0_0_25_gc 0
s_0_0_25_gc 1.8015114553272724e+00
z_0_0_25_gc 0
b_0_0_25_gc[0] 0
b_0_0_25_gc[1] 0
b_0_0_25_gc[2] 0
b_0_0_25_gc[3] 0
x_0_0_26_gc 0
s_0_0_26_gc 8.3756891265511513e-01
z_0_0_26_gc 0
b_0_0_26_gc[0] 0
b_0_0_26_gc[1] 0
b_0_0_26_gc[2] 0
b_0_0_26_gc[3] 0
x_0_0_27_gc 0
s_0_0_27_gc 1.6126664914190769e+00
z_0_0_27_gc 0
b_0_0_27_gc[0] 0
b_0_0_27_gc[1] 0
b_0_0_27_gc[2] 0
b_0_0_27_gc[3] 0
x_0_0_28_gc 0
s_0_0_28_gc 0.545398972928524
z_0_0_28_gc 0
b_0_0_28_gc[0] 0
b_0_0_28_gc[1] 0
b_0_0_28_gc[2] 0
b_0_0_28_gc[3] 0
x_0_0_29_gc 0
s_0_0_29_gc 0
z_0_0_29_gc 1
b_0_0_29_gc[0] 0
b_0_0_29_gc[1] 0
b_0_0_29_gc[2] 0
b_0_0_29_gc[3] 0
x_0_0_30_gc 0
s_0_0_30_gc 1.0861598812043669e+00
z_0_0_30_gc 0
b_0_0_30_gc[0] 0
b_0_0_30_gc[1] 0
b_0_0_30_gc[2] 0
b_0_0_30_gc[3] 0
x_0_0_31_gc 0
s_0_0_31_gc 6.5890678763389587e-01
z_0_0_31_gc 0
b_0_0_31_gc[0] 0
b_0_0_31_gc[1] 0
b_0_0_31_gc[2] 0
b_0_0_31_gc[3] 0
x_0_1_0_gc 0
s_0_1_0_gc 3.7386125512421131e-01
z_0_1_0_gc 0
b_0_1_0_gc[0] 0
b_0_1_0_gc[1] 0
b_0_1_0_gc[2] 0
b_0_1_0_gc[3] 0
x_0_1_1_gc 0
s_0_1_1_gc 0.879174780100584
z_0_1_1_gc 0
b_0_1_1_gc[0] 0
b_0_1_1_gc[1] 0
b_0_1_1_gc[2] 0
b_0_1_1_gc[3] 0
x_0_1_2_gc 0
s_0_1_2_gc 3.3834252227097755e-01
z_0_1_2_gc 0
b_0_1_2_gc[0] 0
b_0_1_2_gc[1] 0
b_0_1_2_gc[2] 0
b_0_1_2_gc[3] 0
x_0_1_3_gc 0
s_0_1_3_gc 1.9619473814964294e-01
z_0_1_3_gc 0
b_0_1_3_gc[0] 0
b_0_1_3_gc[1] 0
b_0_1_3_gc[2] 0
b_0_1_3_gc[3] 0
x_0_1_4_gc 0
s_0_1_4_gc 6.5573130361735821e-01
z_0_1_4_gc 0
b_0_1_4_gc[0] 0
b_0_1_4_gc[1] 0
b_0_1_4_gc[2] 0
b_0_1_4_gc[3] 0
x_0_1_5_gc 0
s_0_1_5_gc 0
z_0_1_5_gc 1
b_0_1_5_gc[0] 0
b_0_1_5_gc[1] 0
b_0_1_5_gc[2] 0
b_0_1_5_gc[3] 0
x_0_1_6_gc 0
s_0_1_6_gc 0
z_0_1_6_gc 1
b_0_1_6_gc[0] 0
b_0_1_6_gc[1] 0
b_0_1_6_gc[2] 0
b_0_1_6_gc[3] 0
x_0_1_7_gc 0
s_0_1_7_gc 2.1689658984541893e-01
z_0_1_7_gc 0
b_0_1_7_gc[0] 0
b_0_1_7_gc[1] 0
b_0_1_7_gc[2] 0
b_0_1_7_gc[3] 0
x_0_1_8_gc 0
s_0_1_8_gc 0
z_0_1_8_gc 1
b_0_1_8_gc[0] 0
b_0_1_8_gc[1] 0
b_0_1_8_gc[2] 0
b_0_1_8_gc[3] 0
x_0_1_9_gc 0
s_0_1_9_gc 0
z_0_1_9_gc 1
b_0_1_9_gc[0] 0
b_0_1_9_gc[1] 0
b_0_1_9_gc[2] 0
b_0_1_9_gc[3] 0
x_0_1_10_gc 0
s_0_1_10_gc 0
z_0_1_10_gc 1
b_0_1_10_gc[0] 0
b_0_1_10_gc[1] 0
b_0_1_10_gc[2] 0
b_0_1_10_gc[3] 0
x_0_1_11_gc 0
s_0_1_11_gc 0
z_0_1_11_gc 1
b_0_1_11_gc[0] 0
b_0_1_11_gc[1] 0
b_0_1_11_gc[2] 0
b_0_1_11_gc[3] 0
x_0_1_12_gc 0
s_0_1_12_gc 6.4000447094440460e-01
z_0_1_12_gc 0
b_0_1_12_gc[0] 0
b_0_1_12_gc[1] 0
b_0_1_12_gc[2] 0
b_0_1_12_gc[3] 0
x_0_1_13_gc 0
s_0_1_13_gc 7.1118887374177575e-01
z_0_1_13_gc 0
b_0_1_13_gc[0] 0
b_0_1_13_gc[1] 0
b_0_1_13_gc[2] 0
b_0_1_13_gc[3] 0
x_0_1_14_gc 0
s_0_1_14_gc 2.9835556447505929e-01
z_0_1_14_gc 0
b_0_1_14_gc[0] 0
b_0_1_14_gc[1] 0
b_0_1_14_gc[2] 0
b_0_1_14_gc[3] 0
x_0_1_15_gc 0
s_0_1_15_gc 0
z_0_1_15_gc 1
b_0_1_15_gc[0] 0
b_0_1_15_gc[1] 0
b_0_1_15_gc[2] 0
b_0_1_15_gc[3] 0
x_0_1_16_gc 0
s_0_1_16_gc 0
z_0_1_16_gc 1
b_0_1_16_gc[0] 0
b_0_1_16_gc[1] 0
b_0_1_16_gc[2] 0
b_0_1_16_gc[3] 0
x_0_1_17_gc 0
s_0_1_17_gc 0
z_0_1_17_gc 1
b_0_1_17_gc[0] 0
b_0_1_17_gc[1] 0
b_0_1_17_gc[2] 0
b_0_1_17_gc[3] 0
x_0_1_18_gc 0
s_0_1_18_gc 0
z_0_1_18_gc 1
b_0_1_18_gc[0] 0
b_0_1_18_gc[1] 0
b_0_1_18_gc[2] 0
b_0_1_18_gc[3] 0
x_0_1_19_gc 0
s_0_1_19_gc 1.3648753594607117e+00
z_0_1_19_gc 0
b_0_1_19_gc[0] 0
b_0_1_19_gc[1] 0
b_0_1_19_gc[2] 0
b_0_1_19_gc[3] 0
x_0_1_20_gc 0
s_0_1_20_gc 0
z_0_1_20_gc 1
b_0_1_20_gc[0] 0
b_0_1_20_gc[1] 0
b_0_1_20_gc[2] 0
b_0_1_20_gc[3] 0
x_0_1_21_gc 0
s_0_1_21_gc 2.1176285408437252e+00
z_0_1_21_gc 0
b_0_1_21_gc[0] 0
b_0_1_21_gc[1] 0
b_0_1_21_gc[2] 0
b_0_1_21_gc[3] 0
x_0_1_22_gc 0
s_0_1_22_gc 1.0464357417076826e+00
z_0_1_22_gc 0
b_0_1_22_gc[0] 0
b_0_1_22_gc[1] 0
b_0_1_22_gc[2] 0
b_0_1_22_gc[3] 0
x_0_1_23_gc 0
s_0_1_23_gc 0
z_0_1_23_gc 1
b_0_1_23_gc[0] 0
b_0_1_23_gc[1] 0
b_0_1_23_gc[2] 0
b_0_1_23_gc[3] 0
x_0_1_24_gc 0
s_0_1_24_gc 0
z_0_1_24_gc 1
b_0_1_24_gc[0] 0
b_0_1_24_gc[1] 0
b_0_1_24_gc[2] 0
b_0_1_24_gc[3] 0
x_0_1_25_gc 0
s_0_1_25_gc 1.8015114553272722e+00
z_0_1_25_gc 0
b_0_1_25_gc[0] 0
b_0_1_25_gc[1] 0
b_0_1_25_gc[2] 0
b_0_1_25_gc[3] 0
x_0_1_26_gc 0
s_0_1_26_gc 8.3756891265511535e-01
z_0_1_26_gc 0
b_0_1_26_gc[0] 0
b_0_1_26_gc[1] 0
b_0_1_26_gc[2] 0
b_0_1_26_gc[3] 0
x_0_1_27_gc 0
s_0_1_27_gc 1.6126664914190769e+00
z_0_1_27_gc 0
b_0_1_27_gc[0] 0
b_0_1_27_gc[1] 0
b_0_1_27_gc[2] 0
b_0_1_27_gc[3] 0
x_0_1_28_gc 0
s_0_1_28_gc 0.545398972928524
z_0_1_28_gc 0
b_0_1_28_gc[0] 0
b_0_1_28_gc[1] 0
b_0_1_28_gc[2] 0
b_0_1_28_gc[3] 0
x_0_1_29_gc 0
s_0_1_29_gc 0
z_0_1_29_gc 1
b_0_1_29_gc[0] 0
b_0_1_29_gc[1] 0
b_0_1_29_gc[2] 0
b_0_1_29_gc[3] 0
x_0_1_30_gc 0
s_0_1_30_gc 1.0861598812043669e+00
z_0_1_30_gc 0
b_0_1_30_gc[0] 0
b_0_1_30_gc[1] 0
b_0_1_30_gc[2] 0
b_0_1_30_gc[3] 0
x_0_1_31_gc 0
s_0_1_31_gc 0.658906787633896
z_0_1_31_gc 0
b_0_1_31_gc[0] 0
b_0_1_31_gc[1] 0
b_0_1_31_gc[2] 0
b_0_1_31_gc[3] 0
x_0_2_0_gc 0
s_0_2_0_gc 3.7386125512421131e-01
z_0_2_0_gc 0
b_0_2_0_gc[0] 0
b_0_2_0_gc[1] 0
b_0_2_0_gc[2] 0
b_0_2_0_gc[3] 0
x_0_2_1_gc 0
s_0_2_1_gc 0.879174780100584
z_0_2_1_gc 0
b_0_2_1_gc[0] 0
b_0_2_1_gc[1] 0
b_0_2_1_gc[2] 0
b_0_2_1_gc[3] 0
x_0_2_2_gc 0
s_0_2_2_gc 3.3834252227097761e-01
z_0_2_2_gc 0
b_0_2_2_gc[0] 0
b_0_2_2_gc[1] 0
b_0_2_2_gc[2] 0
b_0_2_2_gc[3] 0
x_0_2_3_gc 0
s_0_2_3_gc 1.9619473814964297e-01
z_0_2_3_gc 0
b_0_2_3_gc[0] 0
b_0_2_3_gc[1] 0
b_0_2_3_gc[2] 0
b_0_2_3_gc[3] 0
x_0_2_4_gc 0
s_0_2_4_gc 6.5573130361735821e-01
z_0_2_4_gc 0
b_0_2_4_gc[0] 0
b_0_2_4_gc[1] 0
b_0_2_4_gc[2] 0
b_0_2_4_gc[3] 0
x_0_2_5_gc 0
s_0_2_5_gc 0
z_0_2_5_gc 1
b_0_2_5_gc[0] 0
b_0_2_5_gc[1] 0
b_0_2_5_gc[2] 0
b_0_2_5_gc[3] 0
x_0_2_6_gc 0
s_0_2_6_gc 0
z_0_2_6_gc 1
b_0_2_6_gc[0] 0
b_0_2_6_gc[1] 0
b_0_2_6_gc[2] 0
b_0_2_6_gc[3] 0
x_0_2_7_gc 0
s_0_2_7_gc 2.1689658984541893e-01
z_0_2_7_gc 0
b_0_2_7_gc[0] 0
b_0_2_7_gc[1] 0
b_0_2_7_gc[2] 0
b_0_2_7_gc[3] 0
x_0_2_8_gc 0
s_0_2_8_gc 0
z_0_2_8_gc 1
b_0_2_8_gc[0] 0
b_0_2_8_gc[1] 0
b_0_2_8_gc[2] 0
b_0_2_8_gc[3] 0
x_0_2_9_gc 0
s_0_2_9_gc 0
z_0_2_9_gc 1
b_0_2_9_gc[0] 0
b_0_2_9_gc[1] 0
b_0_2_9_gc[2] 0
b_0_2_9_gc[3] 0
x_0_2_10_gc 0
s_0_2_10_gc 0
z_0_2_10_gc 1
b_0_2_10_gc[0] 0
b_0_2_10_gc[1] 0
b_0_2_10_gc[2] 0
b_0_2_10_gc[3] 0
x_0_2_11_gc 0
s_0_2_11_gc 0
z_0_2_11_gc 1
b_0_2_11_gc[0] 0
b_0_2_11_gc[1] 0
b_0_2_11_gc[2] 0
b_0_2_11_gc[3] 0
x_0_2_12_gc 0
s_0_2_12_gc 6.4000447094440471e-01
z_0_2_12_gc 0
b_0_2_12_gc[0] 0
b_0_2_12_gc[1] 0
b_0_2_12_gc[2] 0
b_0_2_12_gc[3] 0
x_0_2_13_gc 0
s_0_2_13_gc 7.1118887374177575e-01
z_0_2_13_gc 0
b_0_2_13_gc[0] 0
b_0_2_13_gc[1] 0
b_0_2_13_gc[2] 0
b_0_2_13_gc[3] 0
x_0_2_14_gc 0
s_0_2_14_gc 2.9835556447505945e-01
z_0_2_14_gc 0
b_0_2_14_gc[0] 0
b_0_2_14_gc[1] 0
b_0_2_14_gc[2] 0
b_0_2_14_gc[3] 0
x_0_2_15_gc 0
s_0_2_15_gc 0
z_0_2_15_gc 1
b_0_2_15_gc[0] 0
b_0_2_15_gc[1] 0
b_0_2_15_gc[2] 0
b_0_2_15_gc[3] 0
x_0_2_16_gc 0
s_0_2_16_gc 0
z_0_2_16_gc 1
b_0_2_16_gc[0] 0
b_0_2_16_gc[1] 0
b_0_2_16_gc[2] 0
b_0_2_16_gc[3] 0
x_0_2_17_gc 0
s_0_2_17_gc 0
z_0_2_17_gc 1
b_0_2_17_gc[0] 0
b_0_2_17_gc[1] 0
b_0_2_17_gc[2] 0
b_0_2_17_gc[3] 0
x_0_2_18_gc 0
s_0_2_18_gc 0
z_0_2_18_gc 1
b_0_2_18_gc[0] 0
b_0_2_18_gc[1] 0
b_0_2_18_gc[2] 0
b_0_2_18_gc[3] 0
x_0_2_19_gc 0
s_0_2_19_gc 1.3648753594607117e+00
z_0_2_19_gc 0
b_0_2_19_gc[0] 0
b_0_2_19_gc[1] 0
b_0_2_19_gc[2] 0
b_0_2_19_gc[3] 0
x_0_2_20_gc 0
s_0_2_20_gc 0
z_0_2_20_gc 1
b_0_2_20_gc[0] 0
b_0_2_20_gc[1] 0
b_0_2_20_gc[2] 0
b_0_2_20_gc[3] 0
x_0_2_21_gc 0
s_0_2_21_gc 2.1176285408437252e+00
z_0_2_21_gc 0
b_0_2_21_gc[0] 0
b_0_2_21_gc[1] 0
b_0_2_21_gc[2] 0
b_0_2_21_gc[3] 0
x_0_2_22_gc 0
s_0_2_22_gc 1.0464357417076826e+00
z_0_2_22_gc 0
b_0_2_22_gc[0] 0
b_0_2_22_gc[1] 0
b_0_2_22_gc[2] 0
b_0_2_22_gc[3] 0
x_0_2_23_gc 0
s_0_2_23_gc 0
z_0_2_23_gc 1
b_0_2_23_gc[0] 0
b_0_2_23_gc[1] 0
b_0_2_23_gc[2] 0
b_0_2_23_gc[3] 0
x_0_2_24_gc 0
s_0_2_24_gc 0
z_0_2_24_gc 1
b_0_2_24_gc[0] 0
b_0_2_24_gc[1] 0
b_0_2_24_gc[2] 0
b_0_2_24_gc[3] 0
x_0_2_25_gc 0
s_0_2_25_gc 1.8015114553272724e+00
z_0_2_25_gc 0
b_0_2_25_gc[0] 0
b_0_2_25_gc[1] 0
b_0_2_25_gc[2] 0
b_0_2_25_gc[3] 0
x_0_2_26_gc 0
s_0_2_26_gc 8.3756891265511524e-01
z_0_2_26_gc 0
b_0_2_26_gc[0] 0
b_0_2_26_gc[1] 0
b_0_2_26_gc[2] 0
b_0_2_26_gc[3] 0
x_0_2_27_gc 0
s_0_2_27_gc 1.6126664914190769e+00
z_0_2_27_gc 0
b_0_2_27_gc[0] 0
b_0_2_27_gc[1] 0
b_0_2_27_gc[2] 0
b_0_2_27_gc[3] 0
x_0_2_28_gc 0
s_0_2_28_gc 0.545398972928524
z_0_2_28_gc 0
b_0_2_28_gc[0] 0
b_0_2_28_gc[1] 0
b_0_2_28_gc[2] 0
b_0_2_28_gc[3] 0
x_0_2_29_gc 0
s_0_2_29_gc 0
z_0_2_29_gc 1
b_0_2_29_gc[0] 0
b_0_2_29_gc[1] 0
b_0_2_29_gc[2] 0
b_0_2_29_gc[3] 0
x_0_2_30_gc 0
s_0_2_30_gc 1.0861598812043667e+00
z_0_2_30_gc 0
b_0_2_30_gc[0] 0
b_0_2_30_gc[1] 0
b_0_2_30_gc[2] 0
b_0_2_30_gc[3] 0
x_0_2_31_gc 0
s_0_2_31_gc 6.5890678763389576e-01
z_0_2_31_gc 0
b_0_2_31_gc[0] 0
b_0_2_31_gc[1] 0
b_0_2_31_gc[2] 0
b_0_2_31_gc[3] 0
x_0_3_0_gc 0
s_0_3_0_gc 3.7386125512421131e-01
z_0_3_0_gc 0
b_0_3_0_gc[0] 0
b_0_3_0_gc[1] 0
b_0_3_0_gc[2] 0
b_0_3_0_gc[3] 0
x_0_3_1_gc 0
s_0_3_1_gc 8.7917478010058381e-01
z_0_3_1_gc 0
b_0_3_1_gc[0] 0
b_0_3_1_gc[1] 0
b_0_3_1_gc[2] 0
b_0_3_1_gc[3] 0
x_0_3_2_gc 0
s_0_3_2_gc 3.3834252227097750e-01
z_0_3_2_gc 0
b_0_3_2_gc[0] 0
b_0_3_2_gc[1] 0
b_0_3_2_gc[2] 0
b_0_3_2_gc[3] 0
x_0_3_3_gc 0
s_0_3_3_gc 0.196194738149643
z_0_3_3_gc 0
b_0_3_3_gc[0] 0
b_0_3_3_gc[1] 0
b_0_3_3_gc[2] 0
b_0_3_3_gc[3] 0
x_0_3_4_gc 0
s_0_3_4_gc 6.5573130361735832e-01
z_0_3_4_gc 0
b_0_3_4_gc[0] 0
b_0_3_4_gc[1] 0
b_0_3_4_gc[2] 0
b_0_3_4_gc[3] 0
x_0_3_5_gc 0
s_0_3_5_gc 0
z_0_3_5_gc 1
b_0_3_5_gc[0] 0
b_0_3_5_gc[1] 0
b_0_3_5_gc[2] 0
b_0_3_5_gc[3] 0
x_0_3_6_gc 0
s_0_3_6_gc 0
z_0_3_6_gc 1
b_0_3_6_gc[0] 0
b_0_3_6_gc[1] 0
b_0_3_6_gc[2] 0
b_0_3_6_gc[3] 0
x_0_3_7_gc 0
s_0_3_7_gc 2.1689658984541893e-01
z_0_3_7_gc 0
b_0_3_7_gc[0] 0
b_0_3_7_gc[1] 0
b_0_3_7_gc[2] 0
b_0_3_7_gc[3] 0
x_0_3_8_gc 0
s_0_3_8_gc 0
z_0_3_8_gc 1
b_0_3_8_gc[0] 0
b_0_3_8_gc[1] 0
b_0_3_8_gc[2] 0
b_0_3_8_gc[3] 0
x_0_3_9_gc 0
s_0_3_9_gc 0
z_0_3_9_gc 1
b_0_3_9_gc[0] 0
b_0_3_9_gc[1] 0
b_0_3_9_gc[2] 0
b_0_3_9_gc[3] 0
x_0_3_10_gc 0
s_0_3_10_gc 0
z_0_3_10_gc 1
b_0_3_10_gc[0] 0
b_0_3_10_gc[1] 0
b_0_3_10_gc[2] 0
b_0_3_10_gc[3] 0
x_0_3_11_gc 0
s_0_3_11_gc 0
z_0_3_11_gc 1
b_0_3_11_gc[0] 0
b_0_3_11_gc[1] 0
b_0_3_11_gc[2] 0
b_0_3_11_gc[3] 0
x_0_3_12_gc 0
s_0_3_12_gc 6.4000447094440438e-01
z_0_3_12_gc 0
b_0_3_12_gc[0] 0
b_0_3_12_gc[1] 0
b_0_3_12_gc[2] 0
b_0_3_12_gc[3] 0
x_0_3_13_gc 0
s_0_3_13_gc 7.1118887374177553e-01
z_0_3_13_gc 0
b_0_3_13_gc[0] 0
b_0_3_13_gc[1] 0
b_0_3_13_gc[2] 0
b_0_3_13_gc[3] 0
x_0_3_14_gc 0
s_0_3_14_gc 2.9835556447505984e-01
z_0_3_14_gc 0
b_0_3_14_gc[0] 0
b_0_3_14_gc[1] 0
b_0_3_14_gc[2] 0
b_0_3_14_gc[3] 0
x_0_3_15_gc 0
s_0_3_15_gc 0
z_0_3_15_gc 1
b_0_3_15_gc[0] 0
b_0_3_15_gc[1] 0
b_0_3_15_gc[2] 0
b_0_3_15_gc[3] 0
x_0_3_16_gc 0
s_0_3_16_gc 0
z_0_3_16_gc 1
b_0_3_16_gc[0] 0
b_0_3_16_gc[1] 0
b_0_3_16_gc[2] 0
b_0_3_16_gc[3] 0
x_0_3_17_gc 0
s_0_3_17_gc 0
z_0_3_17_gc 1
b_0_3_17_gc[0] 0
b_0_3_17_gc[1] 0
b_0_3_17_gc[2] 0
b_0_3_17_gc[3] 0
x_0_3_18_gc 0
s_0_3_18_gc 0
z_0_3_18_gc 1
b_0_3_18_gc[0] 0
b_0_3_18_gc[1] 0
b_0_3_18_gc[2] 0
b_0_3_18_gc[3] 0
x_0_3_19_gc 0
s_0_3_19_gc 1.3648753594607115e+00
z_0_3_19_gc 0
b_0_3_19_gc[0] 0
b_0_3_19_gc[1] 0
b_0_3_19_gc[2] 0
b_0_3_19_gc[3] 0
x_0_3_20_gc 0
s_0_3_20_gc 0
z_0_3_20_gc 1
b_0_3_20_gc[0] 0
b_0_3_20_gc[1] 0
b_0_3_20_gc[2] 0
b_0_3_20_gc[3] 0
x_0_3_21_gc 0
s_0_3_21_gc 2.1176285408437252e+00
z_0_3_21_gc 0
b_0_3_21_gc[0] 0
b_0_3_21_gc[1] 0
b_0_3_21_gc[2] 0
b_0_3_21_gc[3] 0
x_0_3_22_gc 0
s_0_3_22_gc 1.0464357417076824e+00
z_0_3_22_gc 0
b_0_3_22_gc[0] 0
b_0_3_22_gc[1] 0
b_0_3_22_gc[2] 0
b_0_3_22_gc[3] 0
x_0_3_23_gc 0
s_0_3_23_gc 0
z_0_3_23_gc 1
b_0_3_23_gc[0] 0
b_0_3_23_gc[1] 0
b_0_3_23_gc[2] 0
b_0_3_23_gc[3] 0
x_0_3_24_gc 0
s_0_3_24_gc 0
z_0_3_24_gc 1
b_0_3_24_gc[0] 0
b_0_3_24_gc[1] 0
b_0_3_24_gc[2] 0
b_0_3_24_gc[3] 0
x_0_3_25_gc 0
s_0_3_25_gc 1.8015114553272724e+00
z_0_3_25_gc 0
b_0_3_25_gc[0] 0
b_0_3_25_gc[1] 0
b_0_3_25_gc[2] 0
b_0_3_25_gc[3] 0
x_0_3_26_gc 0
s_0_3_26_gc 8.3756891265511513e-01
z_0_3_26_gc 0
b_0_3_26_gc[0] 0
b_0_3_26_gc[1] 0
b_0_3_26_gc[2] 0
b_0_3_26_gc[3] 0
x_0_3_27_gc 0
s_0_3_27_gc 1.6126664914190771e+00
z_0_3_27_gc 0
b_0_3_27_gc[0] 0
b_0_3_27_gc[1] 0
b_0_3_27_gc[2] 0
b_0_3_27_gc[3] 0
x_0_3_28_gc 0
s_0_3_28_gc 5.4539897292852357e-01
z_0_3_28_gc 0
b_0_3_28_gc[0] 0
b_0_3_28_gc[1] 0
b_0_3_28_gc[2] 0
b_0_3_28_gc[3] 0
x_0_3_29_gc 0
s_0_3_29_gc 0
z_0_3_29_gc 1
b_0_3_29_gc[0] 0
b_0_3_29_gc[1] 0
b_0_3_29_gc[2] 0
b_0_3_29_gc[3] 0
x_0_3_30_gc 0
s_0_3_30_gc 1.0861598812043667e+00
z_0_3_30_gc 0
b_0_3_30_gc[0] 0
b_0_3_30_gc[1] 0
b_0_3_30_gc[2] 0
b_0_3_30_gc[3] 0
x_0_3_31_gc 0
s_0_3_31_gc 6.5890678763389587e-01
z_0_3_31_gc 0
b_0_3_31_gc[0] 0
b_0_3_31_gc[1] 0
b_0_3_31_gc[2] 0
b_0_3_31_gc[3] 0
x_ann_zero[0] 0
x_ann_zero[1] 0
x_ann_zero[2] 0
x_ann_zero[3] 0
x_ann_zero[4] 0
x_ann_zero[5] 4.3911335505545139e+00
x_ann_zero[6] 1.5510289669036865e+00
x_ann_zero[7] 0
x_ann_zero[8] 7.1206053271889687e+00
x_ann_zero[9] 5.3339644148945808e+00
x_ann_zero[10] 2.0228170752525330e+00
x_ann_zero[11] 3.5382088720798492e+00
x_ann_zero[12] 0
x_ann_zero[13] 0
x_ann_zero[14] 0
x_ann_zero[15] 1.8479937314987185e+00
x_ann_zero[16] 1.5602084100246427e+00
x_ann_zero[17] 5.1360207796096780e-01
x_ann_zero[18] 2.9653415679931641e+00
x_ann_zero[19] 0
x_ann_zero[20] 3.6480419412255287e+00
x_ann_zero[21] 0
x_ann_zero[22] 0
x_ann_zero[23] 6.0180990099906921e+00
x_ann_zero[24] 5.6100280582904816e+00
x_ann_zero[25] 0
x_ann_zero[26] 0
x_ann_zero[27] 0
x_ann_zero[28] 0
x_ann_zero[29] 2.2713972032070160e+00
x_ann_zero[30] 0
x_ann_zero[31] 0
y 2.4972847870149346e+00
x_1_0_0 3.0066411293999495e+00
s_1_0_0 0
z_1_0_0 1
x_1_1_0 1.0448396653823271e+00
s_1_1_0 0
z_1_1_0 1
x_1_2_0 5.7421060536778934e-01
s_1_2_0 0
z_1_2_0 1
x_1_3_0 0
s_1_3_0 7.5785051349345678e-01
z_1_3_0 0
x_1_4_0 1.6176468042871821e+00
s_1_4_0 0
z_1_4_0 1
x_1_5_0 3.2864945962519467e+00
s_1_5_0 0
z_1_5_0 1
x_1_6_0 4.4244131328279312e-02
s_1_6_0 0
z_1_6_0 1
x_1_7_0 0
s_1_7_0 1.6003920091143162e+00
z_1_7_0 0
x_1_8_0 1.9834745086638252e+00
s_1_8_0 0
z_1_8_0 1
x_1_9_0 2.8305071156760730e+00
s_1_9_0 0
z_1_9_0 1
x_1_10_0 1.7099997109752842e+00
s_1_10_0 0
z_1_10_0 1
x_1_11_0 3.9275595521807189e+00
s_1_11_0 0
z_1_11_0 1
x_1_12_0 0
s_1_12_0 4.4814861600581057e+00
z_1_12_0 0
x_1_13_0 1.0943745545731165e+00
s_1_13_0 0
z_1_13_0 1
x_1_14_0 0
s_1_14_0 2.5532440329101025e+00
z_1_14_0 0
x_1_15_0 0
s_1_15_0 3.3058878297782168e-01
z_1_15_0 0
